c description: Random 3-CNF over 18 variables and 77 clauses
c generator: CNFgen (0.9.2)
c copyright: (C) 2012-2022 Massimo Lauria <massimo.lauria@uniroma1.it>
c url: https://massimolauria.net/cnfgen
c command line: cnfgen --output CNF_4.28/18_bit_77_630.cnf randkcnf 3 18 77
c
p cnf 18 77
-2 -8 -10 0
8 -15 -17 0
-2 -11 12 0
9 -13 14 0
2 -11 -18 0
4 -11 -16 0
4 12 15 0
3 -4 -7 0
-1 11 -18 0
-7 9 -12 0
-1 6 10 0
4 7 -15 0
10 -13 -15 0
3 -8 -13 0
6 -15 17 0
-1 5 -8 0
7 -12 -16 0
-7 13 17 0
-4 9 15 0
7 10 -13 0
-3 -8 17 0
-12 -14 -18 0
-1 -8 -10 0
8 11 13 0
6 -8 13 0
9 -15 -16 0
-9 13 17 0
14 -15 -16 0
-3 11 -18 0
12 15 -16 0
9 -12 15 0
8 -13 17 0
5 9 14 0
-1 4 12 0
9 -12 14 0
-6 15 17 0
-2 -4 -18 0
3 4 -5 0
-2 -8 9 0
1 3 9 0
-3 -13 18 0
-3 -6 9 0
-9 15 17 0
-2 -13 -18 0
-4 7 -18 0
-3 -4 5 0
5 7 -11 0
4 -17 18 0
-7 14 -15 0
-2 5 15 0
11 -14 18 0
11 12 -14 0
-13 -15 16 0
-5 -6 -7 0
-2 -5 12 0
-1 10 -11 0
-2 -9 -14 0
-10 14 -18 0
-4 -7 -18 0
-10 -13 18 0
8 -10 12 0
3 13 -14 0
6 -7 -14 0
-8 12 -13 0
3 16 17 0
-1 -14 -15 0
2 9 -16 0
-6 -17 -18 0
6 -11 14 0
2 15 17 0
-6 -10 -16 0
2 -7 -18 0
-12 13 17 0
-2 15 16 0
15 16 18 0
-12 14 -17 0
-6 -15 16 0
